
Gurobi 11.0.1 (win64) logging started Thu Mar 14 08:07:43 2024

Set parameter LogFile to value "C:\Projetos\Job_Rotation_Algorithms\Outputs\GurobiLogs\gurobi_log-output-39_wee-c67-CostaMirallesModel-NoExtraConstraint-2.log"
Gurobi Optimizer version 11.0.1 build v11.0.1rc0 (win64 - Windows 10.0 (19045.2))

CPU model: 11th Gen Intel(R) Core(TM) i7-1165G7 @ 2.80GHz, instruction set [SSE2|AVX|AVX2|AVX512]
Thread count: 4 physical cores, 8 logical processors, using up to 1 threads


Gurobi 11.0.1 (win64) logging started Fri Mar 15 00:45:10 2024

Set parameter LogFile to value "C:\Projetos\Job_Rotation_Algorithms\Outputs\GurobiLogs\gurobi_log-output-39_wee-c67-CostaMirallesModel-NoExtraConstraint-2.log"
Gurobi Optimizer version 11.0.1 build v11.0.1rc0 (win64 - Windows 10.0 (19045.2))

CPU model: 11th Gen Intel(R) Core(TM) i7-1165G7 @ 2.80GHz, instruction set [SSE2|AVX|AVX2|AVX512]
Thread count: 4 physical cores, 8 logical processors, using up to 1 threads


Gurobi 11.0.1 (win64) logging started Tue Mar 19 09:19:10 2024

Set parameter LogFile to value "C:\Projetos\Job_Rotation_Algorithms\Outputs\GurobiLogs\gurobi_log-output-39_wee-c67-CostaMirallesModel-NoExtraConstraint-2.log"
Gurobi Optimizer version 11.0.1 build v11.0.1rc0 (win64 - Windows 10.0 (19045.2))

CPU model: 11th Gen Intel(R) Core(TM) i7-1165G7 @ 2.80GHz, instruction set [SSE2|AVX|AVX2|AVX512]
Thread count: 4 physical cores, 8 logical processors, using up to 1 threads


Gurobi 11.0.1 (win64) logging started Mon Apr  1 12:48:23 2024

Set parameter LogFile to value "C:\Projetos\Job_Rotation_Algorithms\Outputs\GurobiLogs\gurobi_log-output-39_wee-c67-CostaMirallesModel-NoExtraConstraint-2.log"
Gurobi Optimizer version 11.0.1 build v11.0.1rc0 (win64 - Windows 10.0 (19045.2))

CPU model: 11th Gen Intel(R) Core(TM) i7-1165G7 @ 2.80GHz, instruction set [SSE2|AVX|AVX2|AVX512]
Thread count: 4 physical cores, 8 logical processors, using up to 1 threads


Gurobi 11.0.1 (win64) logging started Mon Apr  1 21:36:14 2024

Set parameter LogFile to value "C:\Projetos\Job_Rotation_Algorithms\Outputs\GurobiLogs\gurobi_log-output-39_wee-c67-CostaMirallesModel-NoExtraConstraint-2.log"
Gurobi Optimizer version 11.0.1 build v11.0.1rc0 (win64 - Windows 10.0 (19045.2))

CPU model: 11th Gen Intel(R) Core(TM) i7-1165G7 @ 2.80GHz, instruction set [SSE2|AVX|AVX2|AVX512]
Thread count: 4 physical cores, 8 logical processors, using up to 1 threads


Gurobi 11.0.1 (win64) logging started Thu Apr  4 23:33:43 2024

Set parameter LogFile to value "C:\Projetos\Job_Rotation_Algorithms\Outputs\GurobiLogs\gurobi_log-output-39_wee-c67-CostaMirallesModel-NoExtraConstraint-2.log"
Gurobi Optimizer version 11.0.1 build v11.0.1rc0 (win64 - Windows 10.0 (19045.2))

CPU model: 11th Gen Intel(R) Core(TM) i7-1165G7 @ 2.80GHz, instruction set [SSE2|AVX|AVX2|AVX512]
Thread count: 4 physical cores, 8 logical processors, using up to 1 threads


Gurobi 11.0.1 (win64) logging started Sat Apr  6 13:03:26 2024

Set parameter LogFile to value "C:\Projetos\Job_Rotation_Algorithms\Outputs\GurobiLogs\gurobi_log-output-39_wee-c67-CostaMirallesModel-NoExtraConstraint-2.log"
Gurobi Optimizer version 11.0.1 build v11.0.1rc0 (win64 - Windows 10.0 (19045.2))

CPU model: 11th Gen Intel(R) Core(TM) i7-1165G7 @ 2.80GHz, instruction set [SSE2|AVX|AVX2|AVX512]
Thread count: 4 physical cores, 8 logical processors, using up to 1 threads


Gurobi 11.0.1 (win64) logging started Sun Apr  7 02:36:11 2024

Set parameter LogFile to value "C:\Projetos\Job_Rotation_Algorithms\Outputs\GurobiLogs\gurobi_log-output-39_wee-c67-CostaMirallesModel-NoExtraConstraint-2.log"
Gurobi Optimizer version 11.0.1 build v11.0.1rc0 (win64 - Windows 10.0 (19045.2))

CPU model: 11th Gen Intel(R) Core(TM) i7-1165G7 @ 2.80GHz, instruction set [SSE2|AVX|AVX2|AVX512]
Thread count: 4 physical cores, 8 logical processors, using up to 1 threads


Gurobi 11.0.1 (win64) logging started Sun Apr  7 09:49:08 2024

Set parameter LogFile to value "C:\Projetos\Job_Rotation_Algorithms\Outputs\GurobiLogs\gurobi_log-output-39_wee-c67-CostaMirallesModel-NoExtraConstraint-2.log"
Gurobi Optimizer version 11.0.1 build v11.0.1rc0 (win64 - Windows 10.0 (19045.2))

CPU model: 11th Gen Intel(R) Core(TM) i7-1165G7 @ 2.80GHz, instruction set [SSE2|AVX|AVX2|AVX512]
Thread count: 4 physical cores, 8 logical processors, using up to 1 threads


Gurobi 11.0.1 (win64) logging started Tue Apr  9 08:07:45 2024

Set parameter LogFile to value "C:\Projetos\Job_Rotation_Algorithms\Outputs\GurobiLogs\gurobi_log-output-39_wee-c67-CostaMirallesModel-NoExtraConstraint-2.log"
Gurobi Optimizer version 11.0.1 build v11.0.1rc0 (win64 - Windows 10.0 (19045.2))

CPU model: 11th Gen Intel(R) Core(TM) i7-1165G7 @ 2.80GHz, instruction set [SSE2|AVX|AVX2|AVX512]
Thread count: 4 physical cores, 8 logical processors, using up to 1 threads


Gurobi 11.0.1 (win64) logging started Wed Apr 10 17:37:27 2024

Set parameter LogFile to value "C:\Projetos\Job_Rotation_Algorithms\Outputs\GurobiLogs\gurobi_log-output-39_wee-c67-CostaMirallesModel-NoExtraConstraint-2.log"
Gurobi Optimizer version 11.0.1 build v11.0.1rc0 (win64 - Windows 10.0 (19045.2))

CPU model: 11th Gen Intel(R) Core(TM) i7-1165G7 @ 2.80GHz, instruction set [SSE2|AVX|AVX2|AVX512]
Thread count: 4 physical cores, 8 logical processors, using up to 1 threads


Gurobi 11.0.1 (win64) logging started Thu Apr 11 01:42:43 2024

Set parameter LogFile to value "C:\Projetos\Job_Rotation_Algorithms\Outputs\GurobiLogs\gurobi_log-output-39_wee-c67-CostaMirallesModel-NoExtraConstraint-2.log"
Gurobi Optimizer version 11.0.1 build v11.0.1rc0 (win64 - Windows 10.0 (19045.2))

CPU model: 11th Gen Intel(R) Core(TM) i7-1165G7 @ 2.80GHz, instruction set [SSE2|AVX|AVX2|AVX512]
Thread count: 4 physical cores, 8 logical processors, using up to 1 threads


Gurobi 11.0.1 (win64) logging started Sun Apr 21 02:59:19 2024

Set parameter LogFile to value "C:\Projetos\Job_Rotation_Algorithms\Outputs\GurobiLogs\gurobi_log-output-39_wee-c67-CostaMirallesModel-NoExtraConstraint-2.log"
Gurobi Optimizer version 11.0.1 build v11.0.1rc0 (win64 - Windows 10.0 (19045.2))

CPU model: 11th Gen Intel(R) Core(TM) i7-1165G7 @ 2.80GHz, instruction set [SSE2|AVX|AVX2|AVX512]
Thread count: 4 physical cores, 8 logical processors, using up to 1 threads


Gurobi 11.0.1 (win64) logging started Fri Apr 26 07:41:19 2024

Set parameter LogFile to value "C:\Projetos\Job_Rotation_Algorithms\Outputs\GurobiLogs\gurobi_log-output-39_wee-c67-CostaMirallesModel-NoExtraConstraint-2.log"
Gurobi Optimizer version 11.0.1 build v11.0.1rc0 (win64 - Windows 10.0 (19045.2))

CPU model: 11th Gen Intel(R) Core(TM) i7-1165G7 @ 2.80GHz, instruction set [SSE2|AVX|AVX2|AVX512]
Thread count: 4 physical cores, 8 logical processors, using up to 1 threads


Gurobi 11.0.1 (win64) logging started Sat Apr 27 04:32:49 2024

Set parameter LogFile to value "C:\Projetos\Job_Rotation_Algorithms\Outputs\GurobiLogs\gurobi_log-output-39_wee-c67-CostaMirallesModel-NoExtraConstraint-2.log"
Gurobi Optimizer version 11.0.1 build v11.0.1rc0 (win64 - Windows 10.0 (19045.2))

CPU model: 11th Gen Intel(R) Core(TM) i7-1165G7 @ 2.80GHz, instruction set [SSE2|AVX|AVX2|AVX512]
Thread count: 4 physical cores, 8 logical processors, using up to 1 threads


Gurobi 11.0.1 (win64) logging started Sat Apr 27 14:50:46 2024

Set parameter LogFile to value "C:\Projetos\Job_Rotation_Algorithms\Outputs\GurobiLogs\gurobi_log-output-39_wee-c67-CostaMirallesModel-NoExtraConstraint-2.log"
Gurobi Optimizer version 11.0.1 build v11.0.1rc0 (win64 - Windows 10.0 (19045.2))

CPU model: 11th Gen Intel(R) Core(TM) i7-1165G7 @ 2.80GHz, instruction set [SSE2|AVX|AVX2|AVX512]
Thread count: 4 physical cores, 8 logical processors, using up to 1 threads


Gurobi 11.0.1 (win64) logging started Tue Apr 30 05:25:25 2024

Set parameter LogFile to value "C:\Projetos\Job_Rotation_Algorithms\Outputs\GurobiLogs\gurobi_log-output-39_wee-c67-CostaMirallesModel-NoExtraConstraint-2.log"
Gurobi Optimizer version 11.0.1 build v11.0.1rc0 (win64 - Windows 10.0 (19045.2))

CPU model: 11th Gen Intel(R) Core(TM) i7-1165G7 @ 2.80GHz, instruction set [SSE2|AVX|AVX2|AVX512]
Thread count: 4 physical cores, 8 logical processors, using up to 1 threads

WLS license 901038 - registered to Bitka Analytics
Optimize a model with 3184 rows, 17333 columns and 274623 nonzeros
Model fingerprint: 0x5a284dee
Variable types: 2 continuous, 17331 integer (17331 binary)
Coefficient statistics:
  Matrix range     [1e+00, 8e+01]
  Objective range  [1e+00, 1e+00]
  Bounds range     [1e+00, 1e+02]
  RHS range        [1e+00, 1e+02]
Presolve added 1034 rows and 541 columns
Presolve time: 0.87s
Presolved: 4218 rows, 17874 columns, 123422 nonzeros
Variable types: 0 continuous, 17874 integer (17199 binary)

Root relaxation: objective 1.500000e+02, 4035 iterations, 0.27 seconds (0.33 work units)

    Nodes    |    Current Node    |     Objective Bounds      |     Work
 Expl Unexpl |  Obj  Depth IntInf | Incumbent    BestBd   Gap | It/Node Time

     0     0  150.00000    0  107          -  150.00000      -     -    2s
     0     0  150.00000    0  101          -  150.00000      -     -    2s
     0     0  150.00000    0  604          -  150.00000      -     -    3s
     0     0  150.00000    0  514          -  150.00000      -     -    3s
     0     0  150.00000    0  647          -  150.00000      -     -    3s
     0     0  150.00000    0   99          -  150.00000      -     -    6s
     0     0  150.00000    0  911          -  150.00000      -     -    7s
     0     0  150.00000    0  765          -  150.00000      -     -    7s
     0     0  150.00000    0  154          -  150.00000      -     -    9s
     0     0  150.00000    0  251          -  150.00000      -     -    9s
     0     0  150.00000    0  178          -  150.00000      -     -   10s
     0     0  150.00000    0  236          -  150.00000      -     -   10s
     0     0  150.00000    0  116          -  150.00000      -     -   11s
     0     0  150.00000    0  112          -  150.00000      -     -   11s
     0     2  150.00000    0  103          -  150.00000      -     -   13s
    29    31  150.00000   16  381          -  150.00000      -   215   15s
   144   141  150.00000   88  374          -  150.00000      -   230   20s
   279   256  150.00000   88  369          -  150.00000      -   226   25s
   490   427  150.00000  110  213          -  150.00000      -   198   30s
   563   482  150.00000  138  108          -  150.00000      -   184   35s
   569   486  150.00000   32  273          -  150.00000      -   182   40s
   574   490  150.00000   54  139          -  150.00000      -   180   46s
   578   492  150.00000   18  123          -  150.00000      -   179   50s
   635   532  150.00000   41  177          -  150.00000      -   392   55s
   728   582  150.00000   83  684          -  150.00000      -   390   60s
   766   596  150.00000   77  486          -  150.00000      -   393   65s
   871   650  150.00000   67  272          -  150.00000      -   362   70s
   951   698  150.00000  107  323          -  150.00000      -   356   75s
  1149   728  150.00000  102   80          -  150.00000      -   305   80s
  1382   796  150.00000  123  189          -  150.00000      -   269   85s
  1648   883 infeasible  139               -  150.00000      -   238   90s
  1792   916  149.00000  112  157          -  150.00000      -   229   95s
  2028   985  150.00000  121  238          -  150.00000      -   215  100s
  2232  1101  149.00000  133  139          -  150.00000      -   206  105s
  2369  1180 infeasible  132               -  150.00000      -   200  110s
  2556  1256  150.00000  142  171          -  150.00000      -   193  115s
  2724  1361  149.00000  119  171          -  150.00000      -   190  120s
  2930  1486 infeasible  132               -  150.00000      -   186  125s
  3144  1593  150.00000  103  179          -  150.00000      -   182  130s
  3290  1653  150.00000  128  254          -  150.00000      -   183  135s
  3438  1702  150.00000   97  303          -  150.00000      -   184  140s
  3567  1739 infeasible  130               -  150.00000      -   185  145s
  3841  1822 infeasible  125               -  150.00000      -   179  150s
  4023  1881  135.94280  130  259          -  150.00000      -   180  155s
  4148  1888 infeasible  132               -  150.00000      -   181  160s
  4158  1886 infeasible  129               -  150.00000      -   181  165s
  4265  1938  150.00000   79  104          -  150.00000      -   181  170s
  4388  2023  150.00000  114  235          -  150.00000      -   180  175s
  4520  2103  149.00035  120  217          -  150.00000      -   179  180s
  4699  2206  149.00000  130  294          -  150.00000      -   176  185s
  4904  2313  150.00000  131  185          -  150.00000      -   172  190s
  5101  2365  150.00000   97   80          -  150.00000      -   169  196s
  5314  2488  150.00000  123  207          -  150.00000      -   165  200s
  5419  2543  150.00000  122  195          -  150.00000      -   165  205s
  5705  2719  150.00000  137  170          -  150.00000      -   161  210s
  5892  2841  150.00000  155  226          -  150.00000      -   161  215s
  6172  3032 infeasible  132               -  150.00000      -   157  220s
  6539  3276  150.00000  125  251          -  150.00000      -   151  225s
  6760  3417  150.00000  101  197          -  150.00000      -   150  230s
  6925  3507  149.00000  107  254          -  150.00000      -   149  235s
  7249  3665  150.00000  120  305          -  150.00000      -   145  240s
  7544  3842  150.00000  179  152          -  150.00000      -   143  245s
  7724  3931  150.00000   94  258          -  150.00000      -   143  250s
  7941  4039  150.00000  107  144          -  150.00000      -   142  255s
  8054  4110  150.00000  117  163          -  150.00000      -   142  263s
  8087  4141  150.00000  133  165          -  150.00000      -   141  265s
  8226  4243  150.00000  136  243          -  150.00000      -   141  270s
  8324  4281  150.00000  120  229          -  150.00000      -   143  275s
  8478  4390 infeasible  139               -  150.00000      -   142  280s
  8671  4504  148.97242  132  261          -  150.00000      -   143  285s
  8811  4596 infeasible  145               -  150.00000      -   143  290s
  8992  4739  149.00000  162  148          -  150.00000      -   143  295s
  9213  4879  150.00000  120  179          -  150.00000      -   143  300s
  9384  4977  150.00000  108  411          -  150.00000      -   143  305s
  9432  5017  149.64661  132  384          -  150.00000      -   145  310s
  9592  5121  150.00000  136  187          -  150.00000      -   145  315s
  9862  5251 infeasible  111               -  150.00000      -   143  320s
 10072  5335  150.00000  141  257          -  150.00000      -   142  325s
 10202  5369 infeasible   90               -  150.00000      -   142  398s
 10271  5394  150.00000  101  292          -  150.00000      -   142  400s
 10445  5462 infeasible  123               -  150.00000      -   142  405s
 10640  5552  150.00000   89  237          -  150.00000      -   141  410s
 10796  5684  150.00000  153  191          -  150.00000      -   141  415s
 11016  5787  150.00000  120  246          -  150.00000      -   141  420s
 11345  6038  150.00000  140  247          -  150.00000      -   139  425s
 11485  6113  150.00000  116  300          -  150.00000      -   139  430s
 11719  6290 infeasible  111               -  150.00000      -   139  435s
 12047  6426 infeasible  137               -  150.00000      -   137  440s
 12349  6540  150.00000  156  189          -  150.00000      -   135  445s
 12465  6558  150.00000  124  255          -  150.00000      -   136  450s
 12833  6762 infeasible  154               -  150.00000      -   133  455s
 13181  6979  150.00000  142  123          -  150.00000      -   132  460s
 13592  7250 infeasible  152               -  150.00000      -   129  465s
 13617  7259  150.00000  113   75          -  150.00000      -   129  471s
 13661  7297  150.00000  135  199          -  150.00000      -   129  475s
 14048  7528 infeasible  120               -  150.00000      -   127  480s
 14442  7818  150.00000  150  243          -  150.00000      -   126  485s
 14872  8036 infeasible  114               -  150.00000      -   124  490s
 15231  8206 infeasible  140               -  150.00000      -   122  495s
 15435  8312 infeasible  193               -  150.00000      -   122  500s
 15969  8480  150.00000  189  279          -  150.00000      -   119  505s
 16399  8615 infeasible  203               -  150.00000      -   117  510s
 16923  8745  150.00000  200   78          -  150.00000      -   115  515s
 17369  8824 infeasible  202               -  150.00000      -   113  520s
 17890  8950 infeasible  220               -  150.00000      -   111  525s
 18347  9019 infeasible  200               -  150.00000      -   109  530s
 18716  9084  150.00000  111  178          -  150.00000      -   108  535s
 18962  9237 infeasible  187               -  150.00000      -   108  540s
 19359  9376 infeasible  152               -  150.00000      -   107  545s
 19788  9565 infeasible  159               -  150.00000      -   106  550s
 20101  9711  150.00000  145  171          -  150.00000      -   105  555s
 20404  9839  149.00000  201  131          -  150.00000      -   104  561s
 20572  9888  149.00000  163  201          -  150.00000      -   104  565s
 20912 10036 infeasible  161               -  150.00000      -   104  570s
 21241 10168 infeasible  174               -  150.00000      -   103  575s
 21645 10329 infeasible  162               -  150.00000      -   102  580s
 21941 10463  150.00000  145  256          -  150.00000      -   102  585s
 22281 10636 infeasible  175               -  150.00000      -   101  590s
 22472 10691 infeasible  158               -  150.00000      -   102  595s
 22764 10671 infeasible  224               -  150.00000      -   101  600s
 23028 10762  150.00000  161  359          -  150.00000      -   101  605s
 23318 10852  150.00000  131  171          -  150.00000      -   101  610s
 23453 10911 infeasible  142               -  150.00000      -   101  615s
 23461 10916  149.67062  142  307          -  150.00000      -   102  627s
 23489 10926  150.00000  135  163          -  150.00000      -   102  630s
 23518 10925 infeasible  132               -  150.00000      -   102  635s
 23609 10982 infeasible  159               -  150.00000      -   102  640s
 23806 11053  149.07778  151  183          -  150.00000      -   103  645s
 24003 11111  146.89004  151  190          -  150.00000      -   103  650s
 24208 11230 infeasible  170               -  150.00000      -   103  655s
 24453 11379 infeasible  136               -  150.00000      -   103  660s
 24772 11549  150.00000  121  257          -  150.00000      -   103  665s
 24980 11671  150.00000  141  305          -  150.00000      -   103  670s
 25262 11791 infeasible  142               -  150.00000      -   103  675s
 25441 11887  149.00000  165  159          -  150.00000      -   103  680s
 25522 11929 infeasible  110               -  150.00000      -   103  685s
 25638 11980  150.00000  108  159          -  150.00000      -   103  690s
 25747 12028  150.00000   94  368          -  150.00000      -   104  695s
 25884 12106  150.00000  112  104          -  150.00000      -   104  700s
 26019 12170 infeasible  120               -  150.00000      -   105  705s
 26243 12234  150.00000  130   95          -  150.00000      -   105  710s
 26535 12310 infeasible  146               -  150.00000      -   104  715s
 26902 12430  150.00000  139  342          -  150.00000      -   104  720s
 27037 12489  145.48246  131  322          -  150.00000      -   104  725s
 27217 12569 infeasible  130               -  150.00000      -   104  730s
 27495 12745 infeasible  157               -  150.00000      -   104  735s
 27703 12822 infeasible  139               -  150.00000      -   104  740s
 27942 12960  150.00000  124  416          -  150.00000      -   104  745s
 28020 12998  150.00000  129  412          -  150.00000      -   105  750s
 28166 13059 infeasible  145               -  150.00000      -   105  755s
 28272 13082 infeasible   92               -  150.00000      -   105  760s
 28448 13153  150.00000  121  419          -  150.00000      -   105  765s
 28589 13240  148.83343  117  180          -  150.00000      -   106  770s
 28675 13261 infeasible  118               -  150.00000      -   106  775s
 28999 13382  150.00000  155  128          -  150.00000      -   106  780s
 29165 13486  136.53126  122  306          -  150.00000      -   106  785s
 29393 13587 infeasible  153               -  150.00000      -   106  790s
 29584 13645  150.00000  168  220          -  150.00000      -   106  795s
 29841 13677 infeasible  146               -  150.00000      -   106  800s
 30002 13756  150.00000  122  180          -  150.00000      -   107  805s
 30118 13818 infeasible  120               -  150.00000      -   107  810s
 30217 13893 infeasible  149               -  150.00000      -   108  815s
 30447 13997 infeasible  154               -  150.00000      -   107  820s
 30606 14052  147.75072  167  190          -  150.00000      -   107  825s
 30838 14082 infeasible  153               -  150.00000      -   107  830s
 30991 14106 infeasible  162               -  150.00000      -   108  835s
 31054 14098  150.00000  192  111          -  150.00000      -   108  842s
 31076 14102  147.44564  122  380          -  150.00000      -   108  845s
 31132 14116  150.00000  131  133          -  150.00000      -   108  850s
 31261 14116  150.00000  192  252          -  150.00000      -   108  855s
 31473 14067 infeasible  180               -  150.00000      -   108  860s
 31639 14131  149.17324  164  206          -  150.00000      -   109  865s
 31866 14223  139.38535  128  265          -  150.00000      -   108  870s
 32053 14314  150.00000  150  137          -  150.00000      -   109  875s
 32213 14386 infeasible  140               -  150.00000      -   109  880s
 32325 14407  150.00000  152  200          -  150.00000      -   109  885s
 32479 14452 infeasible  120               -  150.00000      -   109  890s
 32573 14474 infeasible  115               -  150.00000      -   109  895s
 32806 14563  150.00000  129  234          -  150.00000      -   109  900s
 32989 14618 infeasible  125               -  150.00000      -   110  905s
 33120 14668 infeasible  144               -  150.00000      -   110  910s
 33224 14686 infeasible  132               -  150.00000      -   110  915s
 33306 14731  143.74975  100  532          -  150.00000      -   111  920s
 33406 14777  150.00000  120  252          -  150.00000      -   111  925s
 33483 14784 infeasible  150               -  150.00000      -   111  930s
 33596 14813  150.00000  109  207          -  150.00000      -   112  935s
 33689 14835  150.00000  121  360          -  150.00000      -   112  940s
 33875 14890 infeasible  148               -  150.00000      -   112  945s
 33978 14930  150.00000  118  242          -  150.00000      -   112  950s
 34105 14986 infeasible  125               -  150.00000      -   112  955s
 34145 14990  150.00000  113  102          -  150.00000      -   113  964s
 34151 14996  150.00000  118  234          -  150.00000      -   113  965s
 34178 15009  150.00000  116  358          -  150.00000      -   113  970s
 34273 15059  150.00000  100  203          -  150.00000      -   113  975s
 34380 15098  150.00000  121  207          -  150.00000      -   113  980s
 34460 15135  149.00000  113  333          -  150.00000      -   114  985s
 34660 15259 infeasible   92               -  150.00000      -   114  990s
 34695 15270  150.00000  102   73          -  150.00000      -   114  995s
 34848 15329  150.00000  112  230          -  150.00000      -   114 1000s
 34935 15347  150.00000  132  164          -  150.00000      -   115 1005s
 35028 15350  150.00000  105  340          -  150.00000      -   115 1010s
 35112 15374  150.00000  145  441          -  150.00000      -   116 1015s
 35229 15389  150.00000  112  229          -  150.00000      -   116 1020s
 35295 15407 infeasible  139               -  150.00000      -   116 1025s
 35401 15482  150.00000  113  255          -  150.00000      -   117 1030s
 35483 15530  150.00000  126  225          -  150.00000      -   117 1035s
 35587 15560  150.00000   99  409          -  150.00000      -   117 1040s
 35700 15612 infeasible  165               -  150.00000      -   118 1045s
 35754 15638 infeasible  133               -  150.00000      -   118 1050s
 35855 15672  148.11755  105  259          -  150.00000      -   118 1055s
 35938 15681  150.00000  117  393          -  150.00000      -   118 1060s
 36057 15772  150.00000  118  201          -  150.00000      -   118 1065s
 36189 15824  149.00000  102  422          -  150.00000      -   119 1070s
 36313 15881 infeasible  133               -  150.00000      -   119 1075s
 36398 15908  150.00000  105  326          -  150.00000      -   119 1080s
 36688 16110  150.00000  132   91          -  150.00000      -   119 1085s
 36872 16198  146.26450  135  509          -  150.00000      -   119 1090s
 36955 16229  140.76914  106  512          -  150.00000      -   119 1095s
 37082 16271  150.00000   96  162          -  150.00000      -   120 1100s
 37161 16298 infeasible  104               -  150.00000      -   120 1105s
 37162 16299  141.42833  104  566          -  150.00000      -   120 1114s
 37163 16300  150.00000  103  452          -  150.00000      -   120 1115s
 37188 16313 infeasible  112               -  150.00000      -   120 1120s
 37235 16334 infeasible  110               -  150.00000      -   120 1125s
 37400 16378 infeasible  161               -  150.00000      -   120 1130s
 37557 16374  149.95336  122  141          -  150.00000      -   121 1135s
 37713 16382 infeasible  152               -  150.00000      -   121 1140s
 37846 16450 infeasible  102               -  150.00000      -   121 1145s
 38065 16621  150.00000  146  287          -  150.00000      -   121 1150s
 38201 16680  150.00000  147  138          -  150.00000      -   121 1155s
 38380 16715 infeasible  143               -  150.00000      -   121 1160s
 38545 16735 infeasible  145               -  150.00000      -   122 1165s
 38673 16789  150.00000   95  673          -  150.00000      -   122 1170s
 38704 16805 infeasible  112               -  150.00000      -   122 1175s
 38809 16868  150.00000   92   99          -  150.00000      -   122 1180s
 38949 16979  150.00000  112  294          -  150.00000      -   123 1185s
 39073 17068 infeasible  120               -  150.00000      -   123 1190s
 39143 17123  150.00000  123  277          -  150.00000      -   123 1195s
 39241 17177  150.00000   95  753          -  150.00000      -   124 1200s
 39388 17262  149.77145  121  292          -  150.00000      -   124 1205s
 39489 17266 infeasible  121               -  150.00000      -   124 1210s
 39576 17317  149.33713  124  503          -  150.00000      -   124 1215s
 39842 17449  150.00000  102  129          -  150.00000      -   124 1220s
 39888 17482  148.86209  129  336          -  150.00000      -   124 1225s
 40010 17508 infeasible  132               -  150.00000      -   125 1230s
 40094 17503  150.00000   82   93          -  150.00000      -   125 1235s
 40181 17524  150.00000  183  196          -  150.00000      -   125 1240s
 40284 17565  150.00000   61  193          -  150.00000      -   126 1245s
 40503 17713  150.00000   63  427          -  150.00000      -   125 1250s
 40709 17854  150.00000   72   75          -  150.00000      -   125 1255s
 40808 17925  150.00000  129  175          -  150.00000      -   125 1260s
 41024 18060  147.00000  131  154          -  150.00000      -   125 1265s
 41174 18163 infeasible  128               -  150.00000      -   125 1270s
 41407 18250  147.96768  130  297          -  150.00000      -   125 1275s
 41624 18368 infeasible  162               -  150.00000      -   124 1280s
 41981 18488  145.23118  130  298          -  150.00000      -   124 1285s
 42268 18567  150.00000  138  146          -  150.00000      -   123 1290s
 42432 18597 infeasible  152               -  150.00000      -   123 1295s
 42686 18665  150.00000  149   82          -  150.00000      -   123 1300s
 42803 18668 infeasible  147               -  150.00000      -   123 1305s
 42948 18684  150.00000  135  240          -  150.00000      -   123 1310s
 43173 18752 infeasible  119               -  150.00000      -   123 1315s
 43316 18773  150.00000  124  122          -  150.00000      -   123 1320s
 43592 18926  150.00000  132  108          -  150.00000      -   123 1325s
H43615 18865                     132.0000000  150.00000  13.6%   123 1326s
H43615 17986                     143.0000000  150.00000  4.90%   123 1326s
H43615 16958                     146.0000000  150.00000  2.74%   123 1326s
H43641 15629                     148.0000000  150.00000  1.35%   123 1327s
H43667 13635                     149.0000000  150.00000  0.67%   123 1328s
 43669 13638  150.00000  118  647  149.00000  150.00000  0.67%   123 1437s
H43670 12957                     150.0000000  150.00000  0.00%   123 1438s

Explored 43670 nodes (5400210 simplex iterations) in 1438.70 seconds (1252.70 work units)
Thread count was 1 (of 8 available processors)

Solution count 6: 150 149 148 ... 132

Optimal solution found (tolerance 1.00e-03)
Best objective 1.500000000000e+02, best bound 1.500000000000e+02, gap 0.0000%
